GLPSOL: GLPK LP/MIP Solver, v4.55
Parameter(s) specified in the command line:
 -m tmp.mod
Reading model section from tmp.mod...
Reading data section from tmp.mod...
4011 lines were read
Generating obj...
Generating kirhoff...
Generating init_charge...
Generating batt_size...
Model has been successfully generated
GLPK Simplex Optimizer, v4.55
6176 rows, 7364 columns, 15968 non-zeros
Preprocessing...
4010 rows, 7216 columns, 15644 non-zeros
Scaling...
 A: min|aij| =  1.000e+00  max|aij| =  1.000e+00  ratio =  1.000e+00
Problem data seem to be well scaled
Constructing initial basis...
Size of triangular part is 3317
      0: obj =   0.000000000e+00  infeas =  2.537e+03 (693)
    500: obj =   0.000000000e+00  infeas =  1.860e+03 (604)
   1000: obj =   1.790000000e+02  infeas =  3.160e+02 (555)
*  1444: obj =   2.500000000e+02  infeas =  0.000e+00 (551)
*  1500: obj =   2.160000000e+02  infeas =  0.000e+00 (550)
*  1974: obj =   8.300000000e+01  infeas =  0.000e+00 (549)
OPTIMAL LP SOLUTION FOUND
Time used:   0.6 secs
Memory used: 15.2 Mb (15924042 bytes)
#OUTPUT:
83
-42 -45 3 -36 2 -8 0 0 -20 2 -9 4 -3 -1 -1 -6 0 3 0 2 0 0 -2 0 -2 3 -19 0 0 0 0 -2 0 -7 -4 -8 0 0 0 0 0 -2 -2 -2 0 0 0 0 0 0 0 0 0 -4 0 0 0 0 0 0 6 0 0 0 0 -4 0 0 0 -2 0 -6 0 0 0 0 0 0 5 0 0 0 0 0 0 0 0 0 0 0 0 0 0 0 0 0 0 0 0 0 -2 -9 0 3 6 0 0 -11 0 -1 0 0 6 0 0 0 0 1 0 0 0 0 -2 -2 4 0 3 0 0 0 0 0 0 0 0 -1 0 0 0 -2 0 0 6 0 1 2 0 0 0 0 0 0 0 0 0 2 0 0 0 0 4 0 0 0 0 0 0 10 0 0 0 0 0 0 0 3 2 0 0 0 0 0 0 0 0 -2 0 0 0 0 0 0 0 0 10 0 0 8 0 0 -3 0 0 0 0 0 0 0 0 11 2 0 0 0 -6 13 9 0 -1 2 -2 -7 5 3 0 0 0 2 -6 -1 -2 -2 -4 -1 0 0 0 0 0 0 -3 -10 8 0 0 0 2 0 0 -16 6 0 0 -8 0 3 0 0 0 0 0 0 0 0 0 0 0 0 0 0 0 0 0 0 0 0 0 0 0 0 0 0 0 0 0 0 0 0 0 0 0 0 0 0 0 0 0 0 0 0 0 0 0 0 0 0 0 0 0 0 0 0 0 0 0 0 0 0 0 0 0 0 0 0 0 0 0 0 0 0 0 0 0 0 0 0 0 0 0 0 0 0 0 0 0 0 0 0 0 0 0 0 0 0 0 0 0 0 0 
-42 -36 -4 -26 0 -13 -8 0 -41 0 -2 0 -3 0 -8 -7 -4 -5 0 0 0 0 0 -13 0 0 0 0 0 3 0 0 0 -35 -4 0 0 0 -30 2 0 0 -4 -4 -4 0 0 0 0 0 0 0 0 -4 0 0 0 0 0 0 0 0 0 0 0 -4 0 0 0 3 0 -6 -2 0 0 0 0 0 5 0 0 0 0 0 -1 0 0 2 0 0 0 0 0 0 -2 4 0 0 0 0 -1 -9 -34 0 0 0 0 0 0 -8 0 0 6 0 0 4 -2 0 0 0 0 0 -2 -2 0 0 0 0 0 0 0 0 0 0 0 7 0 0 0 -1 0 0 6 0 -3 13 0 0 0 0 0 0 0 0 0 4 0 0 0 0 0 0 0 0 0 0 0 0 0 0 0 -2 0 0 0 3 0 0 0 0 0 0 0 0 0 3 0 0 0 0 0 0 0 0 0 0 0 0 0 -2 -45 0 0 0 0 0 0 0 0 31 0 0 0 0 0 13 0 -4 0 2 0 -5 5 0 0 -4 0 1 -6 3 -13 -4 0 0 0 0 0 3 -1 0 -3 10 -8 -2 0 0 -3 0 0 0 0 0 0 0 2 -41 0 0 0 0 0 0 0 0 0 0 0 0 0 0 0 0 0 0 0 0 0 0 0 0 0 0 0 0 0 0 0 0 0 0 0 0 0 0 0 0 0 0 0 0 0 0 0 0 0 0 0 0 0 0 0 0 0 0 0 0 0 0 0 0 0 0 0 0 0 0 0 0 0 0 0 0 0 0 0 0 0 0 0 0 0 0 0 0 0 0 0 0 0 0 0 0 0 0 0 0 0 0 0 
-42 -35 -5 -20 0 0 -11 0 -41 0 -39 0 -5 -37 0 -10 -11 0 -2 3 0 0 6 -2 6 0 -25 0 2 0 0 25 3 -7 0 6 0 0 -7 -3 -4 0 -13 -4 -7 0 0 2 0 0 0 0 0 0 0 0 0 0 -2 0 -5 0 0 0 0 0 0 0 0 0 0 -6 -1 0 2 0 19 0 3 0 0 0 0 0 0 0 0 -3 0 0 -2 0 0 3 0 4 0 0 0 0 0 9 -9 0 0 -6 0 11 0 0 0 0 4 0 0 4 -1 36 0 0 0 0 2 -2 0 0 0 0 -2 0 -1 0 0 0 0 0 0 0 0 0 0 0 4 0 -2 20 0 0 0 0 0 0 0 0 0 14 0 3 0 0 0 0 -6 0 0 0 0 -15 0 0 0 0 0 0 0 3 0 0 0 0 0 0 -2 0 0 2 0 0 0 0 0 0 0 0 -15 0 -1 -5 0 3 7 0 0 0 0 0 0 0 0 2 -6 2 0 0 0 9 0 -1 -37 -2 2 0 3 0 1 2 2 -2 -3 2 -20 -13 0 -9 -9 0 0 0 0 0 -3 2 0 -1 0 3 -2 0 0 21 -5 0 1 6 -3 -7 0 0 0 0 0 0 0 0 0 0 0 0 0 0 0 0 0 0 0 0 0 0 0 0 0 0 0 0 0 0 0 0 0 0 0 0 0 0 0 0 0 0 0 0 0 0 0 0 0 0 0 0 0 0 0 0 0 0 0 0 0 0 0 0 0 0 0 0 0 0 0 0 0 0 0 0 0 0 0 0 0 0 0 0 0 0 0 0 0 0 0 0 0 0 0 0 0 0 0 0 0 0 0 
-16 -16 0 -10 -6 1 -2 0 -26 -6 -26 -2 -6 -20 0 0 0 3 -6 0 0 0 0 3 0 3 0 0 0 9 0 0 -2 0 0 -6 0 0 0 0 0 -3 0 4 -4 0 0 -2 0 0 0 0 0 0 0 0 0 0 -6 0 -2 0 0 0 0 0 0 0 0 0 0 -6 0 0 -2 0 0 0 0 0 0 0 0 0 0 0 0 0 0 0 0 0 0 0 -1 -3 0 0 0 0 0 -9 2 3 6 4 0 0 0 0 0 0 0 0 0 -3 0 12 0 0 0 0 0 0 0 0 0 0 0 0 0 0 0 0 0 0 0 0 0 0 0 0 0 0 0 0 0 0 0 0 0 0 0 0 0 0 0 0 0 0 0 0 4 0 0 0 0 2 0 0 0 0 0 0 0 0 0 0 0 0 0 0 0 0 0 0 0 0 0 0 0 0 0 0 2 0 -9 6 0 0 -2 0 0 0 0 0 0 0 0 0 0 0 0 -3 -6 0 0 2 -20 0 0 0 0 0 0 0 -2 2 0 0 0 0 0 0 -4 0 0 0 0 0 0 0 0 0 0 0 0 0 0 0 -2 0 9 -6 0 2 0 0 0 0 0 0 0 0 0 0 0 0 0 0 0 0 0 0 0 0 0 0 0 0 0 0 0 0 0 0 0 0 0 0 0 0 0 0 0 0 0 0 0 0 0 0 0 0 0 0 0 0 0 0 0 0 0 0 0 0 0 0 0 0 0 0 0 0 0 0 0 0 0 0 0 0 0 0 0 0 0 0 0 0 0 0 0 0 0 0 0 0 0 0 0 0 0 0 0 0 0 0 0 
-30 -30 0 -24 -3 3 3 0 -32 -3 -2 0 -6 -2 0 0 3 0 -6 3 0 0 0 0 0 3 -11 0 0 0 0 -2 0 0 0 0 0 0 0 0 0 0 0 -4 -6 0 0 0 0 0 0 0 0 0 0 0 0 0 0 0 0 0 0 0 0 0 0 0 0 0 0 -6 0 0 0 0 -2 0 0 0 0 0 0 0 0 0 0 0 0 0 0 0 0 0 0 0 0 0 0 0 0 -9 2 3 0 0 0 0 0 0 0 0 0 0 0 0 0 2 0 0 0 0 -2 0 0 0 0 0 0 0 0 0 0 0 0 15 0 0 0 0 0 0 0 0 0 13 0 0 0 0 0 0 0 0 0 0 0 0 0 0 0 0 0 0 -30 0 0 0 0 0 0 0 0 0 0 0 0 0 0 0 0 0 0 0 0 0 0 0 0 0 0 0 0 0 0 0 0 0 0 0 0 0 0 0 0 0 0 0 0 30 0 0 0 -3 0 13 0 0 -2 2 0 0 0 0 0 -15 0 0 0 0 -13 0 0 -9 9 0 0 0 0 0 0 0 0 0 0 0 0 0 0 0 0 0 0 0 0 0 0 0 0 0 0 0 0 0 0 0 0 0 0 0 0 0 0 0 0 0 0 0 0 0 0 0 0 0 0 0 0 0 0 0 0 0 0 0 0 0 0 0 0 0 0 0 0 0 0 0 0 0 0 0 0 0 0 0 0 0 0 0 0 0 0 0 0 0 0 0 0 0 0 0 0 0 0 0 0 0 0 0 0 0 0 0 0 0 0 0 0 0 0 0 0 0 0 0 0 0 0 0 0 
-42 -42 0 -26 0 -22 -11 0 -41 0 -19 1 -6 -14 -9 -10 -13 0 -6 6 1 0 8 -6 8 3 -9 0 0 -6 0 -20 3 -13 0 8 0 0 -2 0 -10 -3 24 -4 -27 0 0 2 0 0 0 0 0 0 0 0 0 0 0 0 -7 0 0 0 0 0 0 0 0 0 0 -6 0 0 2 0 -22 0 5 0 0 0 0 0 0 0 0 0 0 0 0 0 0 0 -5 0 0 0 0 0 -4 9 -4 3 0 -6 0 -11 0 -9 0 0 0 0 0 0 0 20 0 0 0 0 2 -4 0 0 6 0 0 0 -1 0 0 0 0 41 1 0 0 -4 0 0 0 0 -11 -24 0 0 0 0 0 0 0 0 0 -24 0 0 0 0 0 0 -6 0 0 0 0 0 0 0 0 -2 0 -1 0 0 2 0 0 0 0 0 0 0 0 0 0 0 0 0 0 0 0 0 0 0 7 -8 0 0 0 0 0 0 0 0 0 0 -1 13 -2 0 0 3 0 -13 9 0 -13 -2 2 -11 5 6 1 -30 2 2 0 11 24 24 0 4 3 0 1 2 0 1 0 -2 0 0 0 0 0 0 0 7 -7 0 -7 8 0 0 0 1 0 0 0 0 0 0 0 0 0 0 0 0 0 0 0 0 0 0 0 0 0 0 0 0 0 0 0 0 0 0 0 0 0 0 0 0 0 0 0 0 0 0 0 0 0 0 0 0 0 0 0 0 0 0 0 0 0 0 0 0 0 0 0 0 0 0 0 0 0 0 0 0 0 0 0 0 0 0 0 0 0 0 0 0 0 0 0 0 0 0 0 0 0 0 0 0 0 0 0 0 0 
-42 -45 3 -35 -6 -19 0 -7 -41 1 -38 6 0 -21 0 -10 -7 -20 0 -7 -1 -2 6 -24 6 3 -16 0 2 6 0 -25 -10 0 0 0 1 -3 0 0 -5 3 0 4 -12 1 0 2 0 0 0 0 0 0 0 0 0 0 -30 0 0 -3 0 5 0 0 0 0 0 0 0 0 0 0 2 0 0 0 5 0 0 0 0 0 1 0 0 0 0 0 -6 0 0 -41 3 0 0 0 0 0 -2 2 1 3 6 -1 0 1 0 0 0 1 0 0 0 0 0 16 0 0 0 0 0 -10 0 -3 0 0 -5 0 0 0 -1 0 0 0 1 0 0 -2 0 0 0 0 3 0 0 0 0 0 0 0 0 0 0 0 0 39 0 0 5 0 0 0 0 0 0 0 0 0 0 -2 0 -1 0 0 0 0 1 0 0 0 -39 0 0 2 0 0 0 3 0 0 0 0 0 1 -4 0 0 0 0 0 0 0 5 0 0 0 -1 3 25 2 1 -3 -6 -1 0 0 -20 0 2 0 5 0 0 -3 2 0 0 -3 0 0 -6 9 -9 0 1 2 0 1 0 0 0 0 -1 39 -2 0 -3 0 0 -1 4 0 0 0 -5 1 0 0 0 0 0 0 0 0 0 0 0 0 0 0 0 0 0 0 0 0 0 0 0 0 0 0 0 0 0 0 0 0 0 0 0 0 0 0 0 0 0 0 0 0 0 0 0 0 0 0 0 0 0 0 0 0 0 0 0 0 0 0 0 0 0 0 0 0 0 0 0 0 0 0 0 0 0 0 0 0 0 0 0 0 0 0 0 0 0 0 0 0 0 0 0 0 0 0 0 0 0 
-21 -19 0 -11 -2 0 1 0 -20 -2 -12 0 -3 -1 -8 -5 0 -1 0 0 1 0 0 -4 0 0 0 0 -1 1 0 1 0 0 0 -6 0 0 0 0 -5 -2 0 0 3 0 0 0 0 0 0 0 0 0 0 0 0 0 -5 0 0 0 0 0 0 0 0 0 0 2 0 0 -2 0 0 0 0 0 0 0 0 0 0 0 0 0 0 0 0 0 0 0 0 0 -2 -4 0 0 0 0 0 -9 0 0 6 0 0 0 0 -8 0 0 0 0 0 -4 -2 0 0 0 0 0 0 -4 0 0 0 0 0 0 -1 0 0 0 0 0 1 0 0 0 0 0 0 0 0 0 0 0 0 0 0 0 0 0 0 0 0 0 0 0 0 0 0 0 0 0 0 -3 0 0 0 -2 0 -1 0 3 2 0 0 0 0 0 0 0 0 1 0 0 0 0 0 0 0 0 -3 0 0 6 0 0 0 0 0 0 0 0 0 0 -1 0 -1 -1 0 0 -6 0 8 2 0 0 2 0 0 0 1 0 0 0 0 0 0 0 0 -4 3 0 1 2 0 1 -3 0 0 -2 0 0 -1 0 0 3 0 0 0 -6 0 0 0 1 0 0 0 0 0 0 0 0 0 0 0 0 0 0 0 0 0 0 0 0 0 0 0 0 0 0 0 0 0 0 0 0 0 0 0 0 0 0 0 0 0 0 0 0 0 0 0 0 0 0 0 0 0 0 0 0 0 0 0 0 0 0 0 0 0 0 0 0 0 0 0 0 0 0 0 0 0 0 0 0 0 0 0 0 0 0 0 0 0 0 0 0 0 0 0 0 0 0 0 0 0 
-35 -26 -5 -13 0 0 0 0 -41 0 -39 0 -3 -33 0 -10 0 0 0 0 0 0 -2 -3 -2 0 0 0 0 -8 0 2 0 -7 0 -8 0 0 -7 0 -4 3 0 -4 30 -3 0 0 0 0 0 0 0 0 0 0 0 0 5 0 2 0 0 0 0 0 0 0 0 0 0 -6 -4 0 0 0 0 0 3 0 0 0 0 0 0 0 0 0 0 0 0 0 0 0 3 -4 0 0 0 -2 0 -9 13 0 6 0 0 0 0 0 0 0 6 0 0 -4 -2 41 0 0 0 0 0 0 0 0 0 0 -3 0 0 0 0 0 0 -29 0 0 0 0 0 0 6 0 0 -13 0 0 0 0 0 0 2 0 0 0 0 0 0 0 0 0 0 0 0 2 0 0 0 0 0 0 0 0 0 3 0 0 0 0 0 0 0 0 0 0 0 0 0 0 0 0 0 0 0 -2 8 8 0 0 -12 0 0 0 0 0 0 0 0 2 -2 0 -3 0 -6 -13 0 -32 -33 0 2 0 3 0 0 29 0 0 -6 0 13 0 2 0 1 -2 0 0 0 0 -3 2 0 -2 0 0 0 0 0 -2 2 2 -8 -8 0 12 0 0 0 0 0 0 0 0 0 0 0 0 0 0 0 0 0 0 0 0 0 0 0 0 0 0 0 0 0 0 0 0 0 0 0 0 0 0 0 0 0 0 0 0 0 0 0 0 0 0 0 0 0 0 0 0 0 0 0 0 0 0 0 0 0 0 0 0 0 0 0 0 0 0 0 0 0 0 0 0 0 0 0 0 0 0 0 0 0 0 0 0 0 0 0 0 0 0 0 0 0 0 0 
#OUTPUT END
Model has been successfully processed
